n = 42;
k = 3;
roles = [
{m, f},
{g, m},
{d, g},
{f, g},
{m, d},
{m, d},
{d, m},
{d, f},
{d, m},
{f, g},
{m, d},
{f, d},
{g, m},
{m, f},
{f, d},
{d, f},
{d, g},
{g, f},
{m, f},
{f, d},
{d, f},
{f, m},
{g, m},
{d, f},
{d, m},
{m, g},
{m, d},
{f, d},
{d, g},
{m, d},
{g, f},
{f, m},
{g, f},
{m, d},
{g, m},
{g, d},
{g, m},
{f, m},
{d, m},
{d, f},
{d, f},
{f, g}
];
num_pairs = 2;
player1 = [6, 5];
player2 = [14, 28];
